(set-logic QF_S)
(declare-fun var0 () String)
(declare-fun var1 () String)
(declare-fun var2 () String)
(declare-fun var3 () Int)
(declare-fun var4 () Int)
(declare-fun var5 () String)
(declare-fun var6 () Int)
(declare-fun var7 () Int)
(assert (str.prefixof var0 var1))
(assert (str.in.re var2 re.allchar))
(assert (>= var3 var4))
(assert (> (str.indexof var5 var5 var6) (str.indexof var5 var2 var7)))
(check-sat)